param set_len = 28;
param target_sum = 815076;
param values := [1] 38269 [2] 80602 [3] 49857 [4] 70388 [5] 10252 [6] 54344 [7] 100393 [8] 115070 [9] 30638 [10] 104751 [11] 115836 [12] 48038 [13] 21020 [14] 101429 [15] 73139 [16] 64562 [17] 99752 [18] 3639 [19] 15486 [20] 47941 [21] 107032 [22] 37947 [23] 96393 [24] 16061 [25] 2072 [26] 75338 [27] 101082 [28] 88295 ;
